HFSDDW
20	4	2
0	44	1	47
0	84	1	45
0	15	1	82
0	29	1	3
0	13	1	84
0	41	1	49
0	57	1	2
0	38	1	24
0	95	1	89
0	61	1	85
0	30	1	49
0	47	1	39
0	79	1	7
0	94	1	29
0	51	1	26
0	40	1	11
0	30	1	44
0	38	1	69
0	90	1	89
0	5	1	45
LBCmax: 493
RELDUE
-1	271	8	1
-1	277	5	8
-1	190	5	3
-1	224	2	2
-1	227	6	7
-1	364	4	1
-1	307	8	2
-1	289	4	8
-1	307	4	2
-1	300	2	1
-1	388	5	5
-1	199	7	9
-1	247	5	3
-1	272	7	8
-1	292	9	4
-1	431	7	4
-1	444	3	9
-1	283	6	4
-1	342	9	3
-1	173	8	9
DDW
241	301
252	302
158	222
186	262
218	236
309	419
286	328
277	301
246	368
261	339
338	438
167	231
230	264
239	305
257	327
392	470
417	471
252	314
311	373
164	182
